* Signature: 0xcd583f2aa9f1c9c6
NAME knapsack_40_10_5
ROWS
 N  OBJ
 L  primal_upper
 L  primal_lower0
 L  primal_lower1
 L  primal_lower2
 L  primal_lower3
 L  primal_lower4
 L  primal_lower5
 L  primal_lower6
 L  primal_lower7
 L  primal_lower8
 L  primal_lower9
 L  interdiction[0]
 L  interdiction[1]
 L  interdiction[2]
 L  interdiction[3]
 L  interdiction[4]
 L  interdiction[5]
 L  interdiction[6]
 L  interdiction[7]
 L  interdiction[8]
 L  interdiction[9]
 L  interdiction[10]
 L  interdiction[11]
 L  interdiction[12]
 L  interdiction[13]
 L  interdiction[14]
 L  interdiction[15]
 L  interdiction[16]
 L  interdiction[17]
 L  interdiction[18]
 L  interdiction[19]
 L  interdiction[20]
 L  interdiction[21]
 L  interdiction[22]
 L  interdiction[23]
 L  interdiction[24]
 L  interdiction[25]
 L  interdiction[26]
 L  interdiction[27]
 L  interdiction[28]
 L  interdiction[29]
 L  interdiction[30]
 L  interdiction[31]
 L  interdiction[32]
 L  interdiction[33]
 L  interdiction[34]
 L  interdiction[35]
 L  interdiction[36]
 L  interdiction[37]
 L  interdiction[38]
 L  interdiction[39]
 L  mccormick1[0]
 L  mccormick1[1]
 L  mccormick1[2]
 L  mccormick1[3]
 L  mccormick1[4]
 L  mccormick1[5]
 L  mccormick1[6]
 L  mccormick1[7]
 L  mccormick1[8]
 L  mccormick1[9]
 L  mccormick1[10]
 L  mccormick1[11]
 L  mccormick1[12]
 L  mccormick1[13]
 L  mccormick1[14]
 L  mccormick1[15]
 L  mccormick1[16]
 L  mccormick1[17]
 L  mccormick1[18]
 L  mccormick1[19]
 L  mccormick1[20]
 L  mccormick1[21]
 L  mccormick1[22]
 L  mccormick1[23]
 L  mccormick1[24]
 L  mccormick1[25]
 L  mccormick1[26]
 L  mccormick1[27]
 L  mccormick1[28]
 L  mccormick1[29]
 L  mccormick1[30]
 L  mccormick1[31]
 L  mccormick1[32]
 L  mccormick1[33]
 L  mccormick1[34]
 L  mccormick1[35]
 L  mccormick1[36]
 L  mccormick1[37]
 L  mccormick1[38]
 L  mccormick1[39]
 L  mccormick2[0]
 L  mccormick2[1]
 L  mccormick2[2]
 L  mccormick2[3]
 L  mccormick2[4]
 L  mccormick2[5]
 L  mccormick2[6]
 L  mccormick2[7]
 L  mccormick2[8]
 L  mccormick2[9]
 L  mccormick2[10]
 L  mccormick2[11]
 L  mccormick2[12]
 L  mccormick2[13]
 L  mccormick2[14]
 L  mccormick2[15]
 L  mccormick2[16]
 L  mccormick2[17]
 L  mccormick2[18]
 L  mccormick2[19]
 L  mccormick2[20]
 L  mccormick2[21]
 L  mccormick2[22]
 L  mccormick2[23]
 L  mccormick2[24]
 L  mccormick2[25]
 L  mccormick2[26]
 L  mccormick2[27]
 L  mccormick2[28]
 L  mccormick2[29]
 L  mccormick2[30]
 L  mccormick2[31]
 L  mccormick2[32]
 L  mccormick2[33]
 L  mccormick2[34]
 L  mccormick2[35]
 L  mccormick2[36]
 L  mccormick2[37]
 L  mccormick2[38]
 L  mccormick2[39]
 L  mccormick3[0]
 L  mccormick3[1]
 L  mccormick3[2]
 L  mccormick3[3]
 L  mccormick3[4]
 L  mccormick3[5]
 L  mccormick3[6]
 L  mccormick3[7]
 L  mccormick3[8]
 L  mccormick3[9]
 L  mccormick3[10]
 L  mccormick3[11]
 L  mccormick3[12]
 L  mccormick3[13]
 L  mccormick3[14]
 L  mccormick3[15]
 L  mccormick3[16]
 L  mccormick3[17]
 L  mccormick3[18]
 L  mccormick3[19]
 L  mccormick3[20]
 L  mccormick3[21]
 L  mccormick3[22]
 L  mccormick3[23]
 L  mccormick3[24]
 L  mccormick3[25]
 L  mccormick3[26]
 L  mccormick3[27]
 L  mccormick3[28]
 L  mccormick3[29]
 L  mccormick3[30]
 L  mccormick3[31]
 L  mccormick3[32]
 L  mccormick3[33]
 L  mccormick3[34]
 L  mccormick3[35]
 L  mccormick3[36]
 L  mccormick3[37]
 L  mccormick3[38]
 L  mccormick3[39]
COLUMNS
    MARKER    'MARKER'                 'INTORG'
    x[0]      OBJ       151.1
    x[0]      interdiction[0]  1
    x[1]      OBJ       81.45
    x[1]      interdiction[1]  1
    x[2]      OBJ       121.08
    x[2]      interdiction[2]  1
    x[3]      OBJ       79.1
    x[3]      interdiction[3]  1
    x[4]      OBJ       110.98
    x[4]      interdiction[4]  1
    x[5]      OBJ       164.66
    x[5]      interdiction[5]  1
    x[6]      OBJ       100.06
    x[6]      interdiction[6]  1
    x[7]      OBJ       67.79
    x[7]      interdiction[7]  1
    x[8]      OBJ       65.76
    x[8]      interdiction[8]  1
    x[9]      OBJ       46.27
    x[9]      interdiction[9]  1
    x[10]     OBJ       32.24
    x[10]     interdiction[10]  1
    x[11]     OBJ       150.78
    x[11]     interdiction[11]  1
    x[12]     OBJ       78.61
    x[12]     interdiction[12]  1
    x[13]     OBJ       20.39
    x[13]     interdiction[13]  1
    x[14]     OBJ       130.22
    x[14]     interdiction[14]  1
    x[15]     OBJ       68.11
    x[15]     interdiction[15]  1
    x[16]     OBJ       76.76
    x[16]     interdiction[16]  1
    x[17]     OBJ       17.74
    x[17]     interdiction[17]  1
    x[18]     OBJ       104.66
    x[18]     interdiction[18]  1
    x[19]     OBJ       103.43
    x[19]     interdiction[19]  1
    x[20]     OBJ       138.28
    x[20]     interdiction[20]  1
    x[21]     OBJ       140.07
    x[21]     interdiction[21]  1
    x[22]     OBJ       89.9
    x[22]     interdiction[22]  1
    x[23]     OBJ       108.51
    x[23]     interdiction[23]  1
    x[24]     OBJ       81.76
    x[24]     interdiction[24]  1
    x[25]     OBJ       107.7
    x[25]     interdiction[25]  1
    x[26]     OBJ       96.69
    x[26]     interdiction[26]  1
    x[27]     OBJ       97.33
    x[27]     interdiction[27]  1
    x[28]     OBJ       94.43
    x[28]     interdiction[28]  1
    x[29]     OBJ       56.92
    x[29]     interdiction[29]  1
    x[30]     OBJ       80.39
    x[30]     interdiction[30]  1
    x[31]     OBJ       101.13
    x[31]     interdiction[31]  1
    x[32]     OBJ       64.21
    x[32]     interdiction[32]  1
    x[33]     OBJ       125.83
    x[33]     interdiction[33]  1
    x[34]     OBJ       51.21
    x[34]     interdiction[34]  1
    x[35]     OBJ       69.09
    x[35]     interdiction[35]  1
    x[36]     OBJ       160.44
    x[36]     interdiction[36]  1
    x[37]     OBJ       95.89
    x[37]     interdiction[37]  1
    x[38]     OBJ       29.29
    x[38]     interdiction[38]  1
    x[39]     OBJ       71.53
    x[39]     interdiction[39]  1
    y[0]      OBJ       -786
    y[0]      primal_upper  686
    y[0]      mccormick2[0]  -1
    y[0]      mccormick3[0]  1
    y[1]      OBJ       -479
    y[1]      primal_upper  379
    y[1]      mccormick2[1]  -1
    y[1]      mccormick3[1]  1
    y[2]      OBJ       -699
    y[2]      primal_upper  599
    y[2]      mccormick2[2]  -1
    y[2]      mccormick3[2]  1
    y[3]      OBJ       -571
    y[3]      primal_upper  471
    y[3]      mccormick2[3]  -1
    y[3]      mccormick3[3]  1
    y[4]      OBJ       -1037
    y[4]      primal_upper  937
    y[4]      mccormick2[4]  -1
    y[4]      mccormick3[4]  1
    y[5]      OBJ       -921
    y[5]      primal_upper  821
    y[5]      mccormick2[5]  -1
    y[5]      mccormick3[5]  1
    y[6]      OBJ       -922
    y[6]      primal_upper  822
    y[6]      mccormick2[6]  -1
    y[6]      mccormick3[6]  1
    y[7]      OBJ       -409
    y[7]      primal_upper  309
    y[7]      mccormick2[7]  -1
    y[7]      mccormick3[7]  1
    y[8]      OBJ       -519
    y[8]      primal_upper  419
    y[8]      mccormick2[8]  -1
    y[8]      mccormick3[8]  1
    y[9]      OBJ       -394
    y[9]      primal_upper  294
    y[9]      mccormick2[9]  -1
    y[9]      mccormick3[9]  1
    y[10]     OBJ       -232
    y[10]     primal_upper  132
    y[10]     mccormick2[10]  -1
    y[10]     mccormick3[10]  1
    y[11]     OBJ       -934
    y[11]     primal_upper  834
    y[11]     mccormick2[11]  -1
    y[11]     mccormick3[11]  1
    y[12]     OBJ       -776
    y[12]     primal_upper  676
    y[12]     mccormick2[12]  -1
    y[12]     mccormick3[12]  1
    y[13]     OBJ       -146
    y[13]     primal_upper  46
    y[13]     mccormick2[13]  -1
    y[13]     mccormick3[13]  1
    y[14]     OBJ       -938
    y[14]     primal_upper  838
    y[14]     mccormick2[14]  -1
    y[14]     mccormick3[14]  1
    y[15]     OBJ       -464
    y[15]     primal_upper  364
    y[15]     mccormick2[15]  -1
    y[15]     mccormick3[15]  1
    y[16]     OBJ       -632
    y[16]     primal_upper  532
    y[16]     mccormick2[16]  -1
    y[16]     mccormick3[16]  1
    y[17]     OBJ       -151
    y[17]     primal_upper  51
    y[17]     mccormick2[17]  -1
    y[17]     mccormick3[17]  1
    y[18]     OBJ       -529
    y[18]     primal_upper  429
    y[18]     mccormick2[18]  -1
    y[18]     mccormick3[18]  1
    y[19]     OBJ       -711
    y[19]     primal_upper  611
    y[19]     mccormick2[19]  -1
    y[19]     mccormick3[19]  1
    y[20]     OBJ       -1094
    y[20]     primal_upper  994
    y[20]     mccormick2[20]  -1
    y[20]     mccormick3[20]  1
    y[21]     OBJ       -776
    y[21]     primal_upper  676
    y[21]     mccormick2[21]  -1
    y[21]     mccormick3[21]  1
    y[22]     OBJ       -546
    y[22]     primal_upper  446
    y[22]     mccormick2[22]  -1
    y[22]     mccormick3[22]  1
    y[23]     OBJ       -792
    y[23]     primal_upper  692
    y[23]     mccormick2[23]  -1
    y[23]     mccormick3[23]  1
    y[24]     OBJ       -719
    y[24]     primal_upper  619
    y[24]     mccormick2[24]  -1
    y[24]     mccormick3[24]  1
    y[25]     OBJ       -700
    y[25]     primal_upper  600
    y[25]     mccormick2[25]  -1
    y[25]     mccormick3[25]  1
    y[26]     OBJ       -843
    y[26]     primal_upper  743
    y[26]     mccormick2[26]  -1
    y[26]     mccormick3[26]  1
    y[27]     OBJ       -639
    y[27]     primal_upper  539
    y[27]     mccormick2[27]  -1
    y[27]     mccormick3[27]  1
    y[28]     OBJ       -519
    y[28]     primal_upper  419
    y[28]     mccormick2[28]  -1
    y[28]     mccormick3[28]  1
    y[29]     OBJ       -384
    y[29]     primal_upper  284
    y[29]     mccormick2[29]  -1
    y[29]     mccormick3[29]  1
    y[30]     OBJ       -523
    y[30]     primal_upper  423
    y[30]     mccormick2[30]  -1
    y[30]     mccormick3[30]  1
    y[31]     OBJ       -777
    y[31]     primal_upper  677
    y[31]     mccormick2[31]  -1
    y[31]     mccormick3[31]  1
    y[32]     OBJ       -416
    y[32]     primal_upper  316
    y[32]     mccormick2[32]  -1
    y[32]     mccormick3[32]  1
    y[33]     OBJ       -959
    y[33]     primal_upper  859
    y[33]     mccormick2[33]  -1
    y[33]     mccormick3[33]  1
    y[34]     OBJ       -423
    y[34]     primal_upper  323
    y[34]     mccormick2[34]  -1
    y[34]     mccormick3[34]  1
    y[35]     OBJ       -655
    y[35]     primal_upper  555
    y[35]     mccormick2[35]  -1
    y[35]     mccormick3[35]  1
    y[36]     OBJ       -940
    y[36]     primal_upper  840
    y[36]     mccormick2[36]  -1
    y[36]     mccormick3[36]  1
    y[37]     OBJ       -747
    y[37]     primal_upper  647
    y[37]     mccormick2[37]  -1
    y[37]     mccormick3[37]  1
    y[38]     OBJ       -189
    y[38]     primal_upper  89
    y[38]     mccormick2[38]  -1
    y[38]     mccormick3[38]  1
    y[39]     OBJ       -582
    y[39]     primal_upper  482
    y[39]     mccormick2[39]  -1
    y[39]     mccormick3[39]  1
    u[0]      primal_lower0  506
    u[0]      primal_lower1  112
    u[0]      primal_lower2  349
    u[0]      primal_lower3  936
    u[0]      primal_lower4  286
    u[0]      primal_lower5  703
    u[0]      primal_lower6  844
    u[0]      primal_lower7  4
    u[0]      primal_lower8  270
    u[0]      primal_lower9  400
    u[0]      interdiction[0]  1
    u[0]      mccormick1[0]  -1
    u[0]      mccormick3[0]  1
    u[1]      primal_lower0  959
    u[1]      primal_lower1  454
    u[1]      primal_lower2  670
    u[1]      primal_lower3  925
    u[1]      primal_lower4  428
    u[1]      primal_lower5  664
    u[1]      primal_lower6  498
    u[1]      primal_lower7  842
    u[1]      primal_lower8  955
    u[1]      primal_lower9  630
    u[1]      interdiction[1]  1
    u[1]      mccormick1[1]  -1
    u[1]      mccormick3[1]  1
    u[2]      primal_lower0  379
    u[2]      primal_lower1  300
    u[2]      primal_lower2  654
    u[2]      primal_lower3  729
    u[2]      primal_lower4  10
    u[2]      primal_lower5  776
    u[2]      primal_lower6  176
    u[2]      primal_lower7  808
    u[2]      primal_lower8  807
    u[2]      primal_lower9  740
    u[2]      interdiction[2]  1
    u[2]      mccormick1[2]  -1
    u[2]      mccormick3[2]  1
    u[3]      primal_lower0  587
    u[3]      primal_lower1  199
    u[3]      primal_lower2  274
    u[3]      primal_lower3  721
    u[3]      primal_lower4  597
    u[3]      primal_lower5  556
    u[3]      primal_lower6  131
    u[3]      primal_lower7  779
    u[3]      primal_lower8  775
    u[3]      primal_lower9  999
    u[3]      interdiction[3]  1
    u[3]      mccormick1[3]  -1
    u[3]      mccormick3[3]  1
    u[4]      primal_lower0  173
    u[4]      primal_lower1  450
    u[4]      primal_lower2  832
    u[4]      primal_lower3  787
    u[4]      primal_lower4  248
    u[4]      primal_lower5  194
    u[4]      primal_lower6  542
    u[4]      primal_lower7  78
    u[4]      primal_lower8  673
    u[4]      primal_lower9  906
    u[4]      interdiction[4]  1
    u[4]      mccormick1[4]  -1
    u[4]      mccormick3[4]  1
    u[5]      primal_lower0  769
    u[5]      primal_lower1  272
    u[5]      primal_lower2  488
    u[5]      primal_lower3  487
    u[5]      primal_lower4  278
    u[5]      primal_lower5  490
    u[5]      primal_lower6  884
    u[5]      primal_lower7  612
    u[5]      primal_lower8  101
    u[5]      primal_lower9  448
    u[5]      interdiction[5]  1
    u[5]      mccormick1[5]  -1
    u[5]      mccormick3[5]  1
    u[6]      primal_lower0  170
    u[6]      primal_lower1  435
    u[6]      primal_lower2  141
    u[6]      primal_lower3  872
    u[6]      primal_lower4  929
    u[6]      primal_lower5  71
    u[6]      primal_lower6  383
    u[6]      primal_lower7  471
    u[6]      primal_lower8  542
    u[6]      primal_lower9  219
    u[6]      interdiction[6]  1
    u[6]      mccormick1[6]  -1
    u[6]      mccormick3[6]  1
    u[7]      primal_lower0  17
    u[7]      primal_lower1  436
    u[7]      primal_lower2  216
    u[7]      primal_lower3  639
    u[7]      primal_lower4  690
    u[7]      primal_lower5  786
    u[7]      primal_lower6  832
    u[7]      primal_lower7  232
    u[7]      primal_lower8  277
    u[7]      primal_lower9  36
    u[7]      interdiction[7]  1
    u[7]      mccormick1[7]  -1
    u[7]      mccormick3[7]  1
    u[8]      primal_lower0  831
    u[8]      primal_lower1  404
    u[8]      primal_lower2  82
    u[8]      primal_lower3  797
    u[8]      primal_lower4  370
    u[8]      primal_lower5  468
    u[8]      primal_lower6  384
    u[8]      primal_lower7  184
    u[8]      primal_lower8  419
    u[8]      primal_lower9  188
    u[8]      interdiction[8]  1
    u[8]      mccormick1[8]  -1
    u[8]      mccormick3[8]  1
    u[9]      primal_lower0  970
    u[9]      primal_lower1  770
    u[9]      primal_lower2  233
    u[9]      primal_lower3  592
    u[9]      primal_lower4  792
    u[9]      primal_lower5  155
    u[9]      primal_lower6  470
    u[9]      primal_lower7  766
    u[9]      primal_lower8  942
    u[9]      primal_lower9  794
    u[9]      interdiction[9]  1
    u[9]      mccormick1[9]  -1
    u[9]      mccormick3[9]  1
    u[10]     primal_lower0  640
    u[10]     primal_lower1  234
    u[10]     primal_lower2  91
    u[10]     primal_lower3  62
    u[10]     primal_lower4  160
    u[10]     primal_lower5  565
    u[10]     primal_lower6  638
    u[10]     primal_lower7  670
    u[10]     primal_lower8  700
    u[10]     primal_lower9  450
    u[10]     interdiction[10]  1
    u[10]     mccormick1[10]  -1
    u[10]     mccormick3[10]  1
    u[11]     primal_lower0  470
    u[11]     primal_lower1  297
    u[11]     primal_lower2  693
    u[11]     primal_lower3  20
    u[11]     primal_lower4  55
    u[11]     primal_lower5  111
    u[11]     primal_lower6  141
    u[11]     primal_lower7  181
    u[11]     primal_lower8  922
    u[11]     primal_lower9  225
    u[11]     interdiction[11]  1
    u[11]     mccormick1[11]  -1
    u[11]     mccormick3[11]  1
    u[12]     primal_lower0  232
    u[12]     primal_lower1  173
    u[12]     primal_lower2  219
    u[12]     primal_lower3  750
    u[12]     primal_lower4  579
    u[12]     primal_lower5  469
    u[12]     primal_lower6  305
    u[12]     primal_lower7  601
    u[12]     primal_lower8  932
    u[12]     primal_lower9  949
    u[12]     interdiction[12]  1
    u[12]     mccormick1[12]  -1
    u[12]     mccormick3[12]  1
    u[13]     primal_lower0  210
    u[13]     primal_lower1  538
    u[13]     primal_lower2  745
    u[13]     primal_lower3  824
    u[13]     primal_lower4  344
    u[13]     primal_lower5  35
    u[13]     primal_lower6  966
    u[13]     primal_lower7  974
    u[13]     primal_lower8  670
    u[13]     primal_lower9  826
    u[13]     interdiction[13]  1
    u[13]     mccormick1[13]  -1
    u[13]     mccormick3[13]  1
    u[14]     primal_lower0  306
    u[14]     primal_lower1  684
    u[14]     primal_lower2  381
    u[14]     primal_lower3  720
    u[14]     primal_lower4  546
    u[14]     primal_lower5  639
    u[14]     primal_lower6  608
    u[14]     primal_lower7  232
    u[14]     primal_lower8  942
    u[14]     primal_lower9  396
    u[14]     interdiction[14]  1
    u[14]     mccormick1[14]  -1
    u[14]     mccormick3[14]  1
    u[15]     primal_lower0  336
    u[15]     primal_lower1  748
    u[15]     primal_lower2  695
    u[15]     primal_lower3  686
    u[15]     primal_lower4  530
    u[15]     primal_lower5  465
    u[15]     primal_lower6  512
    u[15]     primal_lower7  400
    u[15]     primal_lower8  188
    u[15]     primal_lower9  804
    u[15]     interdiction[15]  1
    u[15]     mccormick1[15]  -1
    u[15]     mccormick3[15]  1
    u[16]     primal_lower0  24
    u[16]     primal_lower1  533
    u[16]     primal_lower2  107
    u[16]     primal_lower3  6
    u[16]     primal_lower4  603
    u[16]     primal_lower5  477
    u[16]     primal_lower6  81
    u[16]     primal_lower7  49
    u[16]     primal_lower8  988
    u[16]     primal_lower9  341
    u[16]     interdiction[16]  1
    u[16]     mccormick1[16]  -1
    u[16]     mccormick3[16]  1
    u[17]     primal_lower0  551
    u[17]     primal_lower1  295
    u[17]     primal_lower2  62
    u[17]     primal_lower3  245
    u[17]     primal_lower4  565
    u[17]     primal_lower5  192
    u[17]     primal_lower6  3
    u[17]     primal_lower7  523
    u[17]     primal_lower8  675
    u[17]     primal_lower9  247
    u[17]     interdiction[17]  1
    u[17]     mccormick1[17]  -1
    u[17]     mccormick3[17]  1
    u[18]     primal_lower0  761
    u[18]     primal_lower1  522
    u[18]     primal_lower2  724
    u[18]     primal_lower3  879
    u[18]     primal_lower4  416
    u[18]     primal_lower5  270
    u[18]     primal_lower6  670
    u[18]     primal_lower7  518
    u[18]     primal_lower8  189
    u[18]     primal_lower9  410
    u[18]     interdiction[18]  1
    u[18]     mccormick1[18]  -1
    u[18]     mccormick3[18]  1
    u[19]     primal_lower0  847
    u[19]     primal_lower1  467
    u[19]     primal_lower2  950
    u[19]     primal_lower3  437
    u[19]     primal_lower4  825
    u[19]     primal_lower5  872
    u[19]     primal_lower6  607
    u[19]     primal_lower7  135
    u[19]     primal_lower8  483
    u[19]     primal_lower9  483
    u[19]     interdiction[19]  1
    u[19]     mccormick1[19]  -1
    u[19]     mccormick3[19]  1
    u[20]     primal_lower0  198
    u[20]     primal_lower1  276
    u[20]     primal_lower2  425
    u[20]     primal_lower3  452
    u[20]     primal_lower4  274
    u[20]     primal_lower5  691
    u[20]     primal_lower6  560
    u[20]     primal_lower7  648
    u[20]     primal_lower8  954
    u[20]     primal_lower9  588
    u[20]     interdiction[20]  1
    u[20]     mccormick1[20]  -1
    u[20]     mccormick3[20]  1
    u[21]     primal_lower0  896
    u[21]     primal_lower1  823
    u[21]     primal_lower2  15
    u[21]     primal_lower3  598
    u[21]     primal_lower4  253
    u[21]     primal_lower5  449
    u[21]     primal_lower6  963
    u[21]     primal_lower7  355
    u[21]     primal_lower8  300
    u[21]     primal_lower9  919
    u[21]     interdiction[21]  1
    u[21]     mccormick1[21]  -1
    u[21]     mccormick3[21]  1
    u[22]     primal_lower0  634
    u[22]     primal_lower1  915
    u[22]     primal_lower2  125
    u[22]     primal_lower3  304
    u[22]     primal_lower4  705
    u[22]     primal_lower5  15
    u[22]     primal_lower6  191
    u[22]     primal_lower7  39
    u[22]     primal_lower8  326
    u[22]     primal_lower9  603
    u[22]     interdiction[22]  1
    u[22]     mccormick1[22]  -1
    u[22]     mccormick3[22]  1
    u[23]     primal_lower0  864
    u[23]     primal_lower1  555
    u[23]     primal_lower2  903
    u[23]     primal_lower3  966
    u[23]     primal_lower4  745
    u[23]     primal_lower5  305
    u[23]     primal_lower6  735
    u[23]     primal_lower7  47
    u[23]     primal_lower8  212
    u[23]     primal_lower9  115
    u[23]     interdiction[23]  1
    u[23]     mccormick1[23]  -1
    u[23]     mccormick3[23]  1
    u[24]     primal_lower0  719
    u[24]     primal_lower1  348
    u[24]     primal_lower2  498
    u[24]     primal_lower3  861
    u[24]     primal_lower4  970
    u[24]     primal_lower5  764
    u[24]     primal_lower6  320
    u[24]     primal_lower7  816
    u[24]     primal_lower8  835
    u[24]     primal_lower9  660
    u[24]     interdiction[24]  1
    u[24]     mccormick1[24]  -1
    u[24]     mccormick3[24]  1
    u[25]     primal_lower0  132
    u[25]     primal_lower1  115
    u[25]     primal_lower2  555
    u[25]     primal_lower3  50
    u[25]     primal_lower4  313
    u[25]     primal_lower5  589
    u[25]     primal_lower6  255
    u[25]     primal_lower7  575
    u[25]     primal_lower8  616
    u[25]     primal_lower9  291
    u[25]     interdiction[25]  1
    u[25]     mccormick1[25]  -1
    u[25]     mccormick3[25]  1
    u[26]     primal_lower0  91
    u[26]     primal_lower1  500
    u[26]     primal_lower2  382
    u[26]     primal_lower3  329
    u[26]     primal_lower4  674
    u[26]     primal_lower5  896
    u[26]     primal_lower6  408
    u[26]     primal_lower7  848
    u[26]     primal_lower8  199
    u[26]     primal_lower9  676
    u[26]     interdiction[26]  1
    u[26]     mccormick1[26]  -1
    u[26]     mccormick3[26]  1
    u[27]     primal_lower0  271
    u[27]     primal_lower1  554
    u[27]     primal_lower2  550
    u[27]     primal_lower3  277
    u[27]     primal_lower4  704
    u[27]     primal_lower5  488
    u[27]     primal_lower6  262
    u[27]     primal_lower7  374
    u[27]     primal_lower8  27
    u[27]     primal_lower9  450
    u[27]     interdiction[27]  1
    u[27]     mccormick1[27]  -1
    u[27]     mccormick3[27]  1
    u[28]     primal_lower0  983
    u[28]     primal_lower1  413
    u[28]     primal_lower2  466
    u[28]     primal_lower3  541
    u[28]     primal_lower4  779
    u[28]     primal_lower5  628
    u[28]     primal_lower6  449
    u[28]     primal_lower7  201
    u[28]     primal_lower8  731
    u[28]     primal_lower9  333
    u[28]     interdiction[28]  1
    u[28]     mccormick1[28]  -1
    u[28]     mccormick3[28]  1
    u[29]     primal_lower0  944
    u[29]     primal_lower1  919
    u[29]     primal_lower2  895
    u[29]     primal_lower3  430
    u[29]     primal_lower4  333
    u[29]     primal_lower5  817
    u[29]     primal_lower6  419
    u[29]     primal_lower7  99
    u[29]     primal_lower8  44
    u[29]     primal_lower9  511
    u[29]     interdiction[29]  1
    u[29]     mccormick1[29]  -1
    u[29]     mccormick3[29]  1
    u[30]     primal_lower0  227
    u[30]     primal_lower1  845
    u[30]     primal_lower2  310
    u[30]     primal_lower3  849
    u[30]     primal_lower4  19
    u[30]     primal_lower5  896
    u[30]     primal_lower6  361
    u[30]     primal_lower7  681
    u[30]     primal_lower8  511
    u[30]     primal_lower9  813
    u[30]     interdiction[30]  1
    u[30]     mccormick1[30]  -1
    u[30]     mccormick3[30]  1
    u[31]     primal_lower0  401
    u[31]     primal_lower1  60
    u[31]     primal_lower2  472
    u[31]     primal_lower3  191
    u[31]     primal_lower4  410
    u[31]     primal_lower5  210
    u[31]     primal_lower6  696
    u[31]     primal_lower7  24
    u[31]     primal_lower8  773
    u[31]     primal_lower9  132
    u[31]     interdiction[31]  1
    u[31]     mccormick1[31]  -1
    u[31]     mccormick3[31]  1
    u[32]     primal_lower0  240
    u[32]     primal_lower1  381
    u[32]     primal_lower2  331
    u[32]     primal_lower3  550
    u[32]     primal_lower4  795
    u[32]     primal_lower5  77
    u[32]     primal_lower6  57
    u[32]     primal_lower7  193
    u[32]     primal_lower8  796
    u[32]     primal_lower9  797
    u[32]     interdiction[32]  1
    u[32]     mccormick1[32]  -1
    u[32]     mccormick3[32]  1
    u[33]     primal_lower0  919
    u[33]     primal_lower1  510
    u[33]     primal_lower2  790
    u[33]     primal_lower3  101
    u[33]     primal_lower4  972
    u[33]     primal_lower5  744
    u[33]     primal_lower6  738
    u[33]     primal_lower7  682
    u[33]     primal_lower8  251
    u[33]     primal_lower9  214
    u[33]     interdiction[33]  1
    u[33]     mccormick1[33]  -1
    u[33]     mccormick3[33]  1
    u[34]     primal_lower0  351
    u[34]     primal_lower1  248
    u[34]     primal_lower2  194
    u[34]     primal_lower3  301
    u[34]     primal_lower4  814
    u[34]     primal_lower5  132
    u[34]     primal_lower6  76
    u[34]     primal_lower7  980
    u[34]     primal_lower8  883
    u[34]     primal_lower9  240
    u[34]     interdiction[34]  1
    u[34]     mccormick1[34]  -1
    u[34]     mccormick3[34]  1
    u[35]     primal_lower0  263
    u[35]     primal_lower1  458
    u[35]     primal_lower2  646
    u[35]     primal_lower3  797
    u[35]     primal_lower4  40
    u[35]     primal_lower5  72
    u[35]     primal_lower6  902
    u[35]     primal_lower7  606
    u[35]     primal_lower8  323
    u[35]     primal_lower9  482
    u[35]     interdiction[35]  1
    u[35]     mccormick1[35]  -1
    u[35]     mccormick3[35]  1
    u[36]     primal_lower0  700
    u[36]     primal_lower1  1
    u[36]     primal_lower2  351
    u[36]     primal_lower3  10
    u[36]     primal_lower4  783
    u[36]     primal_lower5  633
    u[36]     primal_lower6  693
    u[36]     primal_lower7  77
    u[36]     primal_lower8  168
    u[36]     primal_lower9  665
    u[36]     interdiction[36]  1
    u[36]     mccormick1[36]  -1
    u[36]     mccormick3[36]  1
    u[37]     primal_lower0  755
    u[37]     primal_lower1  331
    u[37]     primal_lower2  674
    u[37]     primal_lower3  265
    u[37]     primal_lower4  89
    u[37]     primal_lower5  268
    u[37]     primal_lower6  943
    u[37]     primal_lower7  831
    u[37]     primal_lower8  927
    u[37]     primal_lower9  811
    u[37]     interdiction[37]  1
    u[37]     mccormick1[37]  -1
    u[37]     mccormick3[37]  1
    u[38]     primal_lower0  645
    u[38]     primal_lower1  798
    u[38]     primal_lower2  352
    u[38]     primal_lower3  883
    u[38]     primal_lower4  964
    u[38]     primal_lower5  122
    u[38]     primal_lower6  170
    u[38]     primal_lower7  610
    u[38]     primal_lower8  537
    u[38]     primal_lower9  502
    u[38]     interdiction[38]  1
    u[38]     mccormick1[38]  -1
    u[38]     mccormick3[38]  1
    u[39]     primal_lower0  726
    u[39]     primal_lower1  922
    u[39]     primal_lower2  733
    u[39]     primal_lower3  524
    u[39]     primal_lower4  616
    u[39]     primal_lower5  479
    u[39]     primal_lower6  862
    u[39]     primal_lower7  30
    u[39]     primal_lower8  122
    u[39]     primal_lower9  10
    u[39]     interdiction[39]  1
    u[39]     mccormick1[39]  -1
    u[39]     mccormick3[39]  1
    z[0]      primal_upper  69
    z[0]      mccormick1[0]  1
    z[0]      mccormick2[0]  1
    z[0]      mccormick3[0]  -1
    z[1]      primal_upper  38
    z[1]      mccormick1[1]  1
    z[1]      mccormick2[1]  1
    z[1]      mccormick3[1]  -1
    z[2]      primal_upper  60
    z[2]      mccormick1[2]  1
    z[2]      mccormick2[2]  1
    z[2]      mccormick3[2]  -1
    z[3]      primal_upper  47
    z[3]      mccormick1[3]  1
    z[3]      mccormick2[3]  1
    z[3]      mccormick3[3]  -1
    z[4]      primal_upper  94
    z[4]      mccormick1[4]  1
    z[4]      mccormick2[4]  1
    z[4]      mccormick3[4]  -1
    z[5]      primal_upper  82
    z[5]      mccormick1[5]  1
    z[5]      mccormick2[5]  1
    z[5]      mccormick3[5]  -1
    z[6]      primal_upper  82
    z[6]      mccormick1[6]  1
    z[6]      mccormick2[6]  1
    z[6]      mccormick3[6]  -1
    z[7]      primal_upper  31
    z[7]      mccormick1[7]  1
    z[7]      mccormick2[7]  1
    z[7]      mccormick3[7]  -1
    z[8]      primal_upper  42
    z[8]      mccormick1[8]  1
    z[8]      mccormick2[8]  1
    z[8]      mccormick3[8]  -1
    z[9]      primal_upper  29
    z[9]      mccormick1[9]  1
    z[9]      mccormick2[9]  1
    z[9]      mccormick3[9]  -1
    z[10]     primal_upper  13
    z[10]     mccormick1[10]  1
    z[10]     mccormick2[10]  1
    z[10]     mccormick3[10]  -1
    z[11]     primal_upper  83
    z[11]     mccormick1[11]  1
    z[11]     mccormick2[11]  1
    z[11]     mccormick3[11]  -1
    z[12]     primal_upper  68
    z[12]     mccormick1[12]  1
    z[12]     mccormick2[12]  1
    z[12]     mccormick3[12]  -1
    z[13]     primal_upper  5
    z[13]     mccormick1[13]  1
    z[13]     mccormick2[13]  1
    z[13]     mccormick3[13]  -1
    z[14]     primal_upper  84
    z[14]     mccormick1[14]  1
    z[14]     mccormick2[14]  1
    z[14]     mccormick3[14]  -1
    z[15]     primal_upper  36
    z[15]     mccormick1[15]  1
    z[15]     mccormick2[15]  1
    z[15]     mccormick3[15]  -1
    z[16]     primal_upper  53
    z[16]     mccormick1[16]  1
    z[16]     mccormick2[16]  1
    z[16]     mccormick3[16]  -1
    z[17]     primal_upper  5
    z[17]     mccormick1[17]  1
    z[17]     mccormick2[17]  1
    z[17]     mccormick3[17]  -1
    z[18]     primal_upper  43
    z[18]     mccormick1[18]  1
    z[18]     mccormick2[18]  1
    z[18]     mccormick3[18]  -1
    z[19]     primal_upper  61
    z[19]     mccormick1[19]  1
    z[19]     mccormick2[19]  1
    z[19]     mccormick3[19]  -1
    z[20]     primal_upper  99
    z[20]     mccormick1[20]  1
    z[20]     mccormick2[20]  1
    z[20]     mccormick3[20]  -1
    z[21]     primal_upper  68
    z[21]     mccormick1[21]  1
    z[21]     mccormick2[21]  1
    z[21]     mccormick3[21]  -1
    z[22]     primal_upper  45
    z[22]     mccormick1[22]  1
    z[22]     mccormick2[22]  1
    z[22]     mccormick3[22]  -1
    z[23]     primal_upper  69
    z[23]     mccormick1[23]  1
    z[23]     mccormick2[23]  1
    z[23]     mccormick3[23]  -1
    z[24]     primal_upper  62
    z[24]     mccormick1[24]  1
    z[24]     mccormick2[24]  1
    z[24]     mccormick3[24]  -1
    z[25]     primal_upper  60
    z[25]     mccormick1[25]  1
    z[25]     mccormick2[25]  1
    z[25]     mccormick3[25]  -1
    z[26]     primal_upper  74
    z[26]     mccormick1[26]  1
    z[26]     mccormick2[26]  1
    z[26]     mccormick3[26]  -1
    z[27]     primal_upper  54
    z[27]     mccormick1[27]  1
    z[27]     mccormick2[27]  1
    z[27]     mccormick3[27]  -1
    z[28]     primal_upper  42
    z[28]     mccormick1[28]  1
    z[28]     mccormick2[28]  1
    z[28]     mccormick3[28]  -1
    z[29]     primal_upper  28
    z[29]     mccormick1[29]  1
    z[29]     mccormick2[29]  1
    z[29]     mccormick3[29]  -1
    z[30]     primal_upper  42
    z[30]     mccormick1[30]  1
    z[30]     mccormick2[30]  1
    z[30]     mccormick3[30]  -1
    z[31]     primal_upper  68
    z[31]     mccormick1[31]  1
    z[31]     mccormick2[31]  1
    z[31]     mccormick3[31]  -1
    z[32]     primal_upper  32
    z[32]     mccormick1[32]  1
    z[32]     mccormick2[32]  1
    z[32]     mccormick3[32]  -1
    z[33]     primal_upper  86
    z[33]     mccormick1[33]  1
    z[33]     mccormick2[33]  1
    z[33]     mccormick3[33]  -1
    z[34]     primal_upper  32
    z[34]     mccormick1[34]  1
    z[34]     mccormick2[34]  1
    z[34]     mccormick3[34]  -1
    z[35]     primal_upper  56
    z[35]     mccormick1[35]  1
    z[35]     mccormick2[35]  1
    z[35]     mccormick3[35]  -1
    z[36]     primal_upper  84
    z[36]     mccormick1[36]  1
    z[36]     mccormick2[36]  1
    z[36]     mccormick3[36]  -1
    z[37]     primal_upper  65
    z[37]     mccormick1[37]  1
    z[37]     mccormick2[37]  1
    z[37]     mccormick3[37]  -1
    z[38]     primal_upper  9
    z[38]     mccormick1[38]  1
    z[38]     mccormick2[38]  1
    z[38]     mccormick3[38]  -1
    z[39]     primal_upper  48
    z[39]     mccormick1[39]  1
    z[39]     mccormick2[39]  1
    z[39]     mccormick3[39]  -1
    MARKER    'MARKER'                 'INTEND'
RHS
    RHS1      primal_upper  3578
    RHS1      primal_lower0  10348
    RHS1      primal_lower1  6098
    RHS1      primal_lower2  6091
    RHS1      primal_lower3  10696
    RHS1      primal_lower4  972
    RHS1      primal_lower5  9116
    RHS1      primal_lower6  966
    RHS1      primal_lower7  8887
    RHS1      primal_lower8  10992
    RHS1      primal_lower9  10151
    RHS1      interdiction[0]  1
    RHS1      interdiction[1]  1
    RHS1      interdiction[2]  1
    RHS1      interdiction[3]  1
    RHS1      interdiction[4]  1
    RHS1      interdiction[5]  1
    RHS1      interdiction[6]  1
    RHS1      interdiction[7]  1
    RHS1      interdiction[8]  1
    RHS1      interdiction[9]  1
    RHS1      interdiction[10]  1
    RHS1      interdiction[11]  1
    RHS1      interdiction[12]  1
    RHS1      interdiction[13]  1
    RHS1      interdiction[14]  1
    RHS1      interdiction[15]  1
    RHS1      interdiction[16]  1
    RHS1      interdiction[17]  1
    RHS1      interdiction[18]  1
    RHS1      interdiction[19]  1
    RHS1      interdiction[20]  1
    RHS1      interdiction[21]  1
    RHS1      interdiction[22]  1
    RHS1      interdiction[23]  1
    RHS1      interdiction[24]  1
    RHS1      interdiction[25]  1
    RHS1      interdiction[26]  1
    RHS1      interdiction[27]  1
    RHS1      interdiction[28]  1
    RHS1      interdiction[29]  1
    RHS1      interdiction[30]  1
    RHS1      interdiction[31]  1
    RHS1      interdiction[32]  1
    RHS1      interdiction[33]  1
    RHS1      interdiction[34]  1
    RHS1      interdiction[35]  1
    RHS1      interdiction[36]  1
    RHS1      interdiction[37]  1
    RHS1      interdiction[38]  1
    RHS1      interdiction[39]  1
    RHS1      mccormick3[0]  1
    RHS1      mccormick3[1]  1
    RHS1      mccormick3[2]  1
    RHS1      mccormick3[3]  1
    RHS1      mccormick3[4]  1
    RHS1      mccormick3[5]  1
    RHS1      mccormick3[6]  1
    RHS1      mccormick3[7]  1
    RHS1      mccormick3[8]  1
    RHS1      mccormick3[9]  1
    RHS1      mccormick3[10]  1
    RHS1      mccormick3[11]  1
    RHS1      mccormick3[12]  1
    RHS1      mccormick3[13]  1
    RHS1      mccormick3[14]  1
    RHS1      mccormick3[15]  1
    RHS1      mccormick3[16]  1
    RHS1      mccormick3[17]  1
    RHS1      mccormick3[18]  1
    RHS1      mccormick3[19]  1
    RHS1      mccormick3[20]  1
    RHS1      mccormick3[21]  1
    RHS1      mccormick3[22]  1
    RHS1      mccormick3[23]  1
    RHS1      mccormick3[24]  1
    RHS1      mccormick3[25]  1
    RHS1      mccormick3[26]  1
    RHS1      mccormick3[27]  1
    RHS1      mccormick3[28]  1
    RHS1      mccormick3[29]  1
    RHS1      mccormick3[30]  1
    RHS1      mccormick3[31]  1
    RHS1      mccormick3[32]  1
    RHS1      mccormick3[33]  1
    RHS1      mccormick3[34]  1
    RHS1      mccormick3[35]  1
    RHS1      mccormick3[36]  1
    RHS1      mccormick3[37]  1
    RHS1      mccormick3[38]  1
    RHS1      mccormick3[39]  1
BOUNDS
 BV BND1      x[0]    
 BV BND1      x[1]    
 BV BND1      x[2]    
 BV BND1      x[3]    
 BV BND1      x[4]    
 BV BND1      x[5]    
 BV BND1      x[6]    
 BV BND1      x[7]    
 BV BND1      x[8]    
 BV BND1      x[9]    
 BV BND1      x[10]   
 BV BND1      x[11]   
 BV BND1      x[12]   
 BV BND1      x[13]   
 BV BND1      x[14]   
 BV BND1      x[15]   
 BV BND1      x[16]   
 BV BND1      x[17]   
 BV BND1      x[18]   
 BV BND1      x[19]   
 BV BND1      x[20]   
 BV BND1      x[21]   
 BV BND1      x[22]   
 BV BND1      x[23]   
 BV BND1      x[24]   
 BV BND1      x[25]   
 BV BND1      x[26]   
 BV BND1      x[27]   
 BV BND1      x[28]   
 BV BND1      x[29]   
 BV BND1      x[30]   
 BV BND1      x[31]   
 BV BND1      x[32]   
 BV BND1      x[33]   
 BV BND1      x[34]   
 BV BND1      x[35]   
 BV BND1      x[36]   
 BV BND1      x[37]   
 BV BND1      x[38]   
 BV BND1      x[39]   
 BV BND1      y[0]    
 BV BND1      y[1]    
 BV BND1      y[2]    
 BV BND1      y[3]    
 BV BND1      y[4]    
 BV BND1      y[5]    
 BV BND1      y[6]    
 BV BND1      y[7]    
 BV BND1      y[8]    
 BV BND1      y[9]    
 BV BND1      y[10]   
 BV BND1      y[11]   
 BV BND1      y[12]   
 BV BND1      y[13]   
 BV BND1      y[14]   
 BV BND1      y[15]   
 BV BND1      y[16]   
 BV BND1      y[17]   
 BV BND1      y[18]   
 BV BND1      y[19]   
 BV BND1      y[20]   
 BV BND1      y[21]   
 BV BND1      y[22]   
 BV BND1      y[23]   
 BV BND1      y[24]   
 BV BND1      y[25]   
 BV BND1      y[26]   
 BV BND1      y[27]   
 BV BND1      y[28]   
 BV BND1      y[29]   
 BV BND1      y[30]   
 BV BND1      y[31]   
 BV BND1      y[32]   
 BV BND1      y[33]   
 BV BND1      y[34]   
 BV BND1      y[35]   
 BV BND1      y[36]   
 BV BND1      y[37]   
 BV BND1      y[38]   
 BV BND1      y[39]   
 BV BND1      u[0]    
 BV BND1      u[1]    
 BV BND1      u[2]    
 BV BND1      u[3]    
 BV BND1      u[4]    
 BV BND1      u[5]    
 BV BND1      u[6]    
 BV BND1      u[7]    
 BV BND1      u[8]    
 BV BND1      u[9]    
 BV BND1      u[10]   
 BV BND1      u[11]   
 BV BND1      u[12]   
 BV BND1      u[13]   
 BV BND1      u[14]   
 BV BND1      u[15]   
 BV BND1      u[16]   
 BV BND1      u[17]   
 BV BND1      u[18]   
 BV BND1      u[19]   
 BV BND1      u[20]   
 BV BND1      u[21]   
 BV BND1      u[22]   
 BV BND1      u[23]   
 BV BND1      u[24]   
 BV BND1      u[25]   
 BV BND1      u[26]   
 BV BND1      u[27]   
 BV BND1      u[28]   
 BV BND1      u[29]   
 BV BND1      u[30]   
 BV BND1      u[31]   
 BV BND1      u[32]   
 BV BND1      u[33]   
 BV BND1      u[34]   
 BV BND1      u[35]   
 BV BND1      u[36]   
 BV BND1      u[37]   
 BV BND1      u[38]   
 BV BND1      u[39]   
 BV BND1      z[0]    
 BV BND1      z[1]    
 BV BND1      z[2]    
 BV BND1      z[3]    
 BV BND1      z[4]    
 BV BND1      z[5]    
 BV BND1      z[6]    
 BV BND1      z[7]    
 BV BND1      z[8]    
 BV BND1      z[9]    
 BV BND1      z[10]   
 BV BND1      z[11]   
 BV BND1      z[12]   
 BV BND1      z[13]   
 BV BND1      z[14]   
 BV BND1      z[15]   
 BV BND1      z[16]   
 BV BND1      z[17]   
 BV BND1      z[18]   
 BV BND1      z[19]   
 BV BND1      z[20]   
 BV BND1      z[21]   
 BV BND1      z[22]   
 BV BND1      z[23]   
 BV BND1      z[24]   
 BV BND1      z[25]   
 BV BND1      z[26]   
 BV BND1      z[27]   
 BV BND1      z[28]   
 BV BND1      z[29]   
 BV BND1      z[30]   
 BV BND1      z[31]   
 BV BND1      z[32]   
 BV BND1      z[33]   
 BV BND1      z[34]   
 BV BND1      z[35]   
 BV BND1      z[36]   
 BV BND1      z[37]   
 BV BND1      z[38]   
 BV BND1      z[39]   
ENDATA
